
Gurobi 9.5.2 (mac64[arm]) logging started Sun Apr 16 20:48:05 2023

Set parameter LogFile to value "./ccga_results/2023-04-16 20-47-57-477/MSP_TimeStampConvert_gurobi_log.txt"

Gurobi 9.5.2 (mac64[arm]) logging started Sun Apr 16 20:48:07 2023

Set parameter LogFile to value "./ccga_results/2023-04-16 20-47-57-477/MSP_TimeStampConvert_gurobi_log.txt"
Set parameter TimeLimit to value 180
Gurobi Optimizer version 9.5.2 build v9.5.2rc0 (mac64[arm])
Thread count: 8 physical cores, 8 logical processors, using up to 8 threads
Optimize a model with 600 rows, 457 columns and 1482 nonzeros
Model fingerprint: 0xe63f0f4b
Variable types: 25 continuous, 432 integer (432 binary)
Coefficient statistics:
  Matrix range     [1e+00, 1e+00]
  Objective range  [1e+00, 1e+00]
  Bounds range     [1e+03, 1e+03]
  RHS range        [1e+00, 1e+00]
Found heuristic solution: objective 24000.000000

Explored 0 nodes (0 simplex iterations) in 0.00 seconds (0.00 work units)
Thread count was 1 (of 8 available processors)

Solution count 1: 24000 

Optimal solution found (tolerance 5.00e-02)
Best objective 2.400000000000e+04, best bound 2.400000000000e+04, gap 0.0000%

User-callback calls 21, time in user-callback 0.00 sec
Gurobi Optimizer version 9.5.2 build v9.5.2rc0 (mac64[arm])
Thread count: 8 physical cores, 8 logical processors, using up to 8 threads
Optimize a model with 2149 rows, 961 columns and 6467 nonzeros
Model fingerprint: 0xf4c170cc
Variable types: 481 continuous, 480 integer (480 binary)
Coefficient statistics:
  Matrix range     [8e-02, 8e+02]
  Objective range  [1e+00, 1e+00]
  Bounds range     [1e+03, 1e+03]
  RHS range        [1e+00, 6e+06]

MIP start from previous solve did not produce a new incumbent solution

Presolve removed 431 rows and 143 columns
Presolve time: 0.01s
Presolved: 1718 rows, 818 columns, 5714 nonzeros
Variable types: 398 continuous, 420 integer (420 binary)
Found heuristic solution: objective 15213.934662
Found heuristic solution: objective 15302.587568

Root relaxation: objective 2.140000e+04, 352 iterations, 0.00 seconds (0.00 work units)

    Nodes    |    Current Node    |     Objective Bounds      |     Work
 Expl Unexpl |  Obj  Depth IntInf | Incumbent    BestBd   Gap | It/Node Time

*    0     0               0    21400.000000 21400.0000  0.00%     -    0s

Explored 1 nodes (537 simplex iterations) in 0.04 seconds (0.05 work units)
Thread count was 8 (of 8 available processors)

Solution count 3: 21400 15302.6 15213.9 

Optimal solution found (tolerance 5.00e-02)
Best objective 2.140000000000e+04, best bound 2.140000000000e+04, gap 0.0000%

User-callback calls 658, time in user-callback 0.00 sec
Gurobi Optimizer version 9.5.2 build v9.5.2rc0 (mac64[arm])
Thread count: 8 physical cores, 8 logical processors, using up to 8 threads
Optimize a model with 3698 rows, 1465 columns and 11452 nonzeros
Model fingerprint: 0x8a0e9d0c
Variable types: 937 continuous, 528 integer (528 binary)
Coefficient statistics:
  Matrix range     [8e-02, 8e+02]
  Objective range  [1e+00, 1e+00]
  Bounds range     [1e+03, 1e+03]
  RHS range        [1e+00, 6e+06]

MIP start from previous solve did not produce a new incumbent solution

Presolve removed 814 rows and 253 columns
Presolve time: 0.05s
Presolved: 2884 rows, 1212 columns, 10066 nonzeros
Variable types: 792 continuous, 420 integer (420 binary)
Found heuristic solution: objective 9023.0221379

Root relaxation: objective 1.916417e+04, 1484 iterations, 0.02 seconds (0.02 work units)

    Nodes    |    Current Node    |     Objective Bounds      |     Work
 Expl Unexpl |  Obj  Depth IntInf | Incumbent    BestBd   Gap | It/Node Time

     0     0 19164.1652    0   50 9023.02214 19164.1652   112%     -    0s
H    0     0                    18410.356047 19164.1652  4.09%     -    0s

Cutting planes:
  Gomory: 10
  Cover: 3
  MIR: 31
  Flow cover: 46
  Relax-and-lift: 5

Explored 1 nodes (1799 simplex iterations) in 0.19 seconds (0.14 work units)
Thread count was 8 (of 8 available processors)

Solution count 2: 18410.4 9023.02 

Optimal solution found (tolerance 5.00e-02)
Best objective 1.841035604665e+04, best bound 1.916416523450e+04, gap 4.0945%

User-callback calls 567, time in user-callback 0.00 sec
Gurobi Optimizer version 9.5.2 build v9.5.2rc0 (mac64[arm])
Thread count: 8 physical cores, 8 logical processors, using up to 8 threads
Optimize a model with 5247 rows, 1969 columns and 16437 nonzeros
Model fingerprint: 0x352df893
Variable types: 1393 continuous, 576 integer (576 binary)
Coefficient statistics:
  Matrix range     [8e-02, 8e+02]
  Objective range  [1e+00, 1e+00]
  Bounds range     [1e+03, 1e+03]
  RHS range        [1e+00, 6e+06]

MIP start from previous solve did not produce a new incumbent solution

Presolve removed 1196 rows and 372 columns
Presolve time: 0.04s
Presolved: 4051 rows, 1597 columns, 14405 nonzeros
Variable types: 1177 continuous, 420 integer (420 binary)

Root relaxation: objective 1.649149e+04, 2225 iterations, 0.03 seconds (0.05 work units)

    Nodes    |    Current Node    |     Objective Bounds      |     Work
 Expl Unexpl |  Obj  Depth IntInf | Incumbent    BestBd   Gap | It/Node Time

     0     0 16491.4881    0   76          - 16491.4881      -     -    0s
H    0     0                    15876.041667 16491.4881  3.88%     -    0s

Cutting planes:
  Gomory: 21
  Cover: 4
  Implied bound: 6
  Clique: 6
  MIR: 55
  Flow cover: 73
  Relax-and-lift: 8

Explored 1 nodes (3058 simplex iterations) in 0.23 seconds (0.26 work units)
Thread count was 8 (of 8 available processors)

Solution count 1: 15876 

Optimal solution found (tolerance 5.00e-02)
Best objective 1.587604166667e+04, best bound 1.649148811085e+04, gap 3.8766%

User-callback calls 572, time in user-callback 0.00 sec
Gurobi Optimizer version 9.5.2 build v9.5.2rc0 (mac64[arm])
Thread count: 8 physical cores, 8 logical processors, using up to 8 threads
Optimize a model with 6796 rows, 2473 columns and 21422 nonzeros
Model fingerprint: 0xe395022e
Variable types: 1849 continuous, 624 integer (624 binary)
Coefficient statistics:
  Matrix range     [8e-02, 8e+02]
  Objective range  [1e+00, 1e+00]
  Bounds range     [1e+03, 1e+03]
  RHS range        [1e+00, 6e+06]

MIP start from previous solve did not produce a new incumbent solution

Presolve removed 1577 rows and 490 columns
Presolve time: 0.05s
Presolved: 5219 rows, 1983 columns, 18287 nonzeros
Variable types: 1560 continuous, 423 integer (420 binary)

Root relaxation: objective 1.382425e+04, 3228 iterations, 0.05 seconds (0.05 work units)

    Nodes    |    Current Node    |     Objective Bounds      |     Work
 Expl Unexpl |  Obj  Depth IntInf | Incumbent    BestBd   Gap | It/Node Time

     0     0 13824.2493    0  119          - 13824.2493      -     -    0s
H    0     0                    12012.372222 13824.2493  15.1%     -    0s
     0     0 13706.2824    0  162 12012.3722 13706.2824  14.1%     -    0s
     0     0 13690.9547    0  155 12012.3722 13690.9547  14.0%     -    0s
H    0     0                    12503.622222 13689.1200  9.48%     -    0s
     0     0 13689.1200    0  158 12503.6222 13689.1200  9.48%     -    0s
     0     0 13689.1046    0  150 12503.6222 13689.1046  9.48%     -    0s
H    0     0                    12691.365380 13689.1046  7.86%     -    0s
     0     0 13556.5644    0  141 12691.3654 13556.5644  6.82%     -    0s
     0     0 13546.8273    0  142 12691.3654 13546.8273  6.74%     -    0s
     0     0 13546.3748    0  155 12691.3654 13546.3748  6.74%     -    0s
     0     0 13546.2925    0  149 12691.3654 13546.2925  6.74%     -    0s
     0     0 13546.2925    0  149 12691.3654 13546.2925  6.74%     -    0s
     0     0 13537.5290    0  167 12691.3654 13537.5290  6.67%     -    0s
     0     0 13536.4861    0  161 12691.3654 13536.4861  6.66%     -    0s
     0     0 13535.7239    0  159 12691.3654 13535.7239  6.65%     -    0s
     0     0 13535.6618    0  161 12691.3654 13535.6618  6.65%     -    0s
     0     0 13534.7125    0  131 12691.3654 13534.7125  6.65%     -    0s
     0     0 13534.5627    0  146 12691.3654 13534.5627  6.64%     -    0s
     0     0 13534.3608    0  151 12691.3654 13534.3608  6.64%     -    0s
     0     0 13534.3343    0  148 12691.3654 13534.3343  6.64%     -    0s
     0     0 13533.7161    0  145 12691.3654 13533.7161  6.64%     -    0s
     0     0 13533.6784    0  136 12691.3654 13533.6784  6.64%     -    0s
H    0     0                    12800.386198 13533.6187  5.73%     -    0s
     0     0 13533.6187    0  151 12800.3862 13533.6187  5.73%     -    0s
     0     0 13533.6165    0  151 12800.3862 13533.6165  5.73%     -    0s
     0     0 13533.6165    0  148 12800.3862 13533.6165  5.73%     -    0s
     0     0 13533.6165    0  132 12800.3862 13533.6165  5.73%     -    1s
     0     2 13533.6165    0  132 12800.3862 13533.6165  5.73%     -    1s
H  216   226                    12986.203291 13524.5215  4.15%   169    1s
H  217   226                    13034.258847 13524.5215  3.76%   168    1s
H  218   226                    13130.649644 13524.5215  3.00%   168    1s

Cutting planes:
  Gomory: 18
  Cover: 3
  MIR: 166
  Flow cover: 180
  Relax-and-lift: 3

Explored 225 nodes (48032 simplex iterations) in 1.75 seconds (2.25 work units)
Thread count was 8 (of 8 available processors)

Solution count 7: 13130.6 13034.3 12986.2 ... 12012.4

Optimal solution found (tolerance 5.00e-02)
Best objective 1.313064964444e+04, best bound 1.352452150404e+04, gap 2.9996%

User-callback calls 1535, time in user-callback 0.00 sec
Gurobi Optimizer version 9.5.2 build v9.5.2rc0 (mac64[arm])
Thread count: 8 physical cores, 8 logical processors, using up to 8 threads
Optimize a model with 8345 rows, 2977 columns and 26407 nonzeros
Model fingerprint: 0xe13c0979
Variable types: 2305 continuous, 672 integer (672 binary)
Coefficient statistics:
  Matrix range     [8e-02, 8e+02]
  Objective range  [1e+00, 1e+00]
  Bounds range     [1e+03, 1e+03]
  RHS range        [1e+00, 6e+06]

MIP start from previous solve did not produce a new incumbent solution

Presolve removed 1960 rows and 610 columns
Presolve time: 0.06s
Presolved: 6385 rows, 2367 columns, 22355 nonzeros
Variable types: 1944 continuous, 423 integer (420 binary)

Root relaxation: objective 1.073917e+04, 4358 iterations, 0.07 seconds (0.08 work units)

    Nodes    |    Current Node    |     Objective Bounds      |     Work
 Expl Unexpl |  Obj  Depth IntInf | Incumbent    BestBd   Gap | It/Node Time

     0     0 10739.1696    0  139          - 10739.1696      -     -    0s
H    0     0                    9063.4313829 10739.1696  18.5%     -    0s
     0     0 10577.1898    0  171 9063.43138 10577.1898  16.7%     -    0s
H    0     0                    9126.9390251 10577.1898  15.9%     -    0s
     0     0 10574.8087    0  150 9126.93903 10574.8087  15.9%     -    0s
     0     0 10574.8087    0  144 9126.93903 10574.8087  15.9%     -    0s
H    0     0                    9436.4952233 10420.5198  10.4%     -    0s
     0     0 10420.5198    0  161 9436.49522 10420.5198  10.4%     -    0s
     0     0 10397.4276    0  169 9436.49522 10397.4276  10.2%     -    0s
     0     0 10383.6327    0  173 9436.49522 10383.6327  10.0%     -    0s
     0     0 10383.0300    0  176 9436.49522 10383.0300  10.0%     -    0s
     0     0 10382.9487    0  179 9436.49522 10382.9487  10.0%     -    0s
     0     0 10382.9487    0  179 9436.49522 10382.9487  10.0%     -    0s
     0     0 10315.9133    0  196 9436.49522 10315.9133  9.32%     -    0s
     0     0 10313.6530    0  205 9436.49522 10313.6530  9.30%     -    0s
     0     0 10313.5626    0  211 9436.49522 10313.5626  9.29%     -    1s
     0     0 10277.9986    0  192 9436.49522 10277.9986  8.92%     -    1s
     0     0 10276.1542    0  207 9436.49522 10276.1542  8.90%     -    1s
     0     0 10276.1542    0  207 9436.49522 10276.1542  8.90%     -    1s
H    0     0                    9504.8355729 10276.1542  8.12%     -    1s
     0     0 10232.0370    0  198 9504.83557 10232.0370  7.65%     -    1s
     0     0 10231.2483    0  213 9504.83557 10231.2483  7.64%     -    1s
     0     0 10231.2477    0  216 9504.83557 10231.2477  7.64%     -    1s
     0     0 10228.7532    0  186 9504.83557 10228.7532  7.62%     -    1s
     0     0 10228.7532    0  192 9504.83557 10228.7532  7.62%     -    1s
H    0     0                    9540.5060999 10228.7532  7.21%     -    1s
     0     0 10227.0128    0  177 9540.50610 10227.0128  7.20%     -    1s
     0     0 10225.9120    0  192 9540.50610 10225.9120  7.18%     -    1s
     0     0 10225.9120    0  192 9540.50610 10225.9120  7.18%     -    1s
     0     0 10225.9099    0  195 9540.50610 10225.9099  7.18%     -    1s
     0     0 10225.9098    0  195 9540.50610 10225.9098  7.18%     -    1s
     0     0 10225.9098    0  195 9540.50610 10225.9098  7.18%     -    1s
     0     0 10225.9098    0  183 9540.50610 10225.9098  7.18%     -    1s
     0     2 10225.9098    0  183 9540.50610 10225.9098  7.18%     -    2s
*  522   468              62    9619.1005707 10199.9991  6.04%   182    3s
H  564   447                    9638.9534174 10199.9991  5.82%   175    3s
* 1037   737              91    9744.5411796 10195.2233  4.62%   169    4s

Cutting planes:
  Gomory: 11
  Cover: 1
  MIR: 455
  StrongCG: 1
  Flow cover: 481
  Relax-and-lift: 20

Explored 1038 nodes (189022 simplex iterations) in 4.05 seconds (5.51 work units)
Thread count was 8 (of 8 available processors)

Solution count 8: 9744.54 9638.95 9619.1 ... 9063.43

Optimal solution found (tolerance 5.00e-02)
Best objective 9.744541179591e+03, best bound 1.019522325085e+04, gap 4.6250%

User-callback calls 3626, time in user-callback 0.00 sec
Gurobi Optimizer version 9.5.2 build v9.5.2rc0 (mac64[arm])
Thread count: 8 physical cores, 8 logical processors, using up to 8 threads
Optimize a model with 9894 rows, 3481 columns and 31392 nonzeros
Model fingerprint: 0x6f7464da
Variable types: 2761 continuous, 720 integer (720 binary)
Coefficient statistics:
  Matrix range     [8e-02, 8e+02]
  Objective range  [1e+00, 1e+00]
  Bounds range     [1e+03, 1e+03]
  RHS range        [1e+00, 6e+06]

MIP start from previous solve did not produce a new incumbent solution

Presolve removed 2342 rows and 729 columns
Presolve time: 0.07s
Presolved: 7552 rows, 2752 columns, 26476 nonzeros
Variable types: 2329 continuous, 423 integer (420 binary)

Root relaxation: objective 1.017918e+04, 5298 iterations, 0.10 seconds (0.11 work units)

    Nodes    |    Current Node    |     Objective Bounds      |     Work
 Expl Unexpl |  Obj  Depth IntInf | Incumbent    BestBd   Gap | It/Node Time

     0     0 10179.1842    0  129          - 10179.1842      -     -    0s
H    0     0                    8684.7388197 10179.1842  17.2%     -    0s
     0     0 10042.0893    0  197 8684.73882 10042.0893  15.6%     -    0s
     0     0 10040.2576    0  169 8684.73882 10040.2576  15.6%     -    0s
     0     0 10040.2576    0  169 8684.73882 10040.2576  15.6%     -    0s
     0     0 9873.83065    0  168 8684.73882 9873.83065  13.7%     -    0s
     0     0 9817.20672    0  168 8684.73882 9817.20672  13.0%     -    0s
     0     0 9817.19480    0  168 8684.73882 9817.19480  13.0%     -    0s
     0     0 9799.78006    0  172 8684.73882 9799.78006  12.8%     -    1s
     0     0 9797.89410    0  165 8684.73882 9797.89410  12.8%     -    1s
     0     0 9797.05890    0  162 8684.73882 9797.05890  12.8%     -    1s
     0     0 9797.05276    0  174 8684.73882 9797.05276  12.8%     -    1s
     0     0 9756.85588    0  199 8684.73882 9756.85588  12.3%     -    1s
     0     0 9754.61856    0  178 8684.73882 9754.61856  12.3%     -    1s
     0     0 9754.42093    0  175 8684.73882 9754.42093  12.3%     -    1s
     0     0 9754.19852    0  183 8684.73882 9754.19852  12.3%     -    1s
     0     0 9754.19852    0  190 8684.73882 9754.19852  12.3%     -    1s
     0     0 9705.48900    0  188 8684.73882 9705.48900  11.8%     -    1s
H    0     0                    8914.9443928 9705.18296  8.86%     -    1s
     0     0 9705.18296    0  190 8914.94439 9705.18296  8.86%     -    1s
     0     0 9705.08439    0  190 8914.94439 9705.08439  8.86%     -    1s
     0     0 9705.08439    0  190 8914.94439 9705.08439  8.86%     -    1s
     0     0 9705.08439    0  190 8914.94439 9705.08439  8.86%     -    1s
     0     0 9705.07788    0  172 8914.94439 9705.07788  8.86%     -    1s
     0     0 9705.07788    0  162 8914.94439 9705.07788  8.86%     -    1s
     0     2 9705.07788    0  162 8914.94439 9705.07788  8.86%     -    2s
H  258   268                    8964.5369652 9680.37975  7.99%   229    3s
H  260   268                    9036.2993569 9680.37975  7.13%   228    3s
H  502   453                    9073.3945786 9680.37975  6.69%   194    3s
*  857   701              68    9107.8153768 9674.26242  6.22%   178    4s
H  885   645                    9144.9264560 9674.26242  5.79%   178    4s
  1363  1054 9586.74413    8  140 9144.92646 9671.82575  5.76%   181    5s
  1493  1114 9325.35453   24  154 9144.92646 9625.14964  5.25%   180   10s
  1524  1141 9448.54185   19  120 9144.92646 9621.88041  5.22%   206   15s
H 1824  1283                    9243.1454470 9621.88041  4.10%   224   17s

Cutting planes:
  Gomory: 18
  Cover: 1
  Projected implied bound: 4
  MIR: 308
  Flow cover: 500
  Relax-and-lift: 11

Explored 1833 nodes (429155 simplex iterations) in 17.14 seconds (27.78 work units)
Thread count was 8 (of 8 available processors)

Solution count 8: 9243.15 9144.93 9107.82 ... 8684.74

Optimal solution found (tolerance 5.00e-02)
Best objective 9.243145447046e+03, best bound 9.621880413729e+03, gap 4.0975%

User-callback calls 7893, time in user-callback 0.00 sec
Gurobi Optimizer version 9.5.2 build v9.5.2rc0 (mac64[arm])
Thread count: 8 physical cores, 8 logical processors, using up to 8 threads
Optimize a model with 11443 rows, 3985 columns and 36377 nonzeros
Model fingerprint: 0x8e4a0ca8
Variable types: 3217 continuous, 768 integer (768 binary)
Coefficient statistics:
  Matrix range     [8e-02, 8e+02]
  Objective range  [1e+00, 1e+00]
  Bounds range     [1e+03, 1e+03]
  RHS range        [1e+00, 6e+06]

MIP start from previous solve produced solution with objective 6638.65 (0.02s)
Loaded MIP start from previous solve with objective 6638.65

Presolve removed 2726 rows and 850 columns
Presolve time: 0.09s
Presolved: 8717 rows, 3135 columns, 30624 nonzeros
Variable types: 2712 continuous, 423 integer (420 binary)

Root relaxation: objective 8.822384e+03, 6214 iterations, 0.15 seconds (0.16 work units)

    Nodes    |    Current Node    |     Objective Bounds      |     Work
 Expl Unexpl |  Obj  Depth IntInf | Incumbent    BestBd   Gap | It/Node Time

     0     0 8822.38387    0  125 6638.64634 8822.38387  32.9%     -    0s
H    0     0                    7290.6140126 8822.38387  21.0%     -    0s
     0     0 8791.86261    0  175 7290.61401 8791.86261  20.6%     -    0s
     0     0 8791.86261    0  162 7290.61401 8791.86261  20.6%     -    0s
H    0     0                    7451.2072396 8732.76557  17.2%     -    1s
     0     0 8732.76557    0  170 7451.20724 8732.76557  17.2%     -    1s
     0     0 8707.38385    0  183 7451.20724 8707.38385  16.9%     -    1s
     0     0 8700.94273    0  175 7451.20724 8700.94273  16.8%     -    1s
     0     0 8700.76330    0  178 7451.20724 8700.76330  16.8%     -    1s
     0     0 8700.76330    0  178 7451.20724 8700.76330  16.8%     -    1s
     0     0 8624.69542    0  199 7451.20724 8624.69542  15.7%     -    1s
H    0     0                    7745.9079321 8623.29214  11.3%     -    1s
H    0     0                    7752.8796817 8623.29214  11.2%     -    1s
     0     0 8623.29214    0  191 7752.87968 8623.29214  11.2%     -    1s
     0     0 8623.17705    0  191 7752.87968 8623.17705  11.2%     -    1s
     0     0 8622.91597    0  188 7752.87968 8622.91597  11.2%     -    1s
     0     0 8622.91597    0  188 7752.87968 8622.91597  11.2%     -    1s
     0     0 8617.43649    0  180 7752.87968 8617.43649  11.2%     -    1s
     0     0 8617.03211    0  183 7752.87968 8617.03211  11.1%     -    1s
     0     0 8617.03211    0  184 7752.87968 8617.03211  11.1%     -    1s
     0     0 8614.62840    0  195 7752.87968 8614.62840  11.1%     -    1s
     0     0 8614.34666    0  198 7752.87968 8614.34666  11.1%     -    1s
     0     0 8614.34666    0  198 7752.87968 8614.34666  11.1%     -    1s
     0     0 8614.21627    0  186 7752.87968 8614.21627  11.1%     -    1s
     0     0 8614.21235    0  195 7752.87968 8614.21235  11.1%     -    2s
     0     0 8612.50105    0  189 7752.87968 8612.50105  11.1%     -    2s
     0     0 8612.50105    0  186 7752.87968 8612.50105  11.1%     -    2s
H    0     0                    7766.0507338 8612.50105  10.9%     -    2s
     0     0 8612.50105    0  189 7766.05073 8612.50105  10.9%     -    2s
     0     0 8612.50105    0  189 7766.05073 8612.50105  10.9%     -    2s
     0     0 8612.50105    0  165 7766.05073 8612.50105  10.9%     -    2s
     0     0 8612.50105    0  173 7766.05073 8612.50105  10.9%     -    2s
     0     0 8611.78100    0  145 7766.05073 8611.78100  10.9%     -    2s
H    0     0                    7770.3889936 8611.48587  10.8%     -    2s
     0     0 8611.48587    0  157 7770.38899 8611.48587  10.8%     -    2s
     0     0 8611.46614    0  157 7770.38899 8611.46614  10.8%     -    2s
     0     0 8610.51386    0  163 7770.38899 8610.51386  10.8%     -    3s
     0     0 8610.46370    0  166 7770.38899 8610.46370  10.8%     -    3s
H    0     0                    7878.3740741 8610.46370  9.29%     -    3s
     0     0 8609.58682    0  169 7878.37407 8609.58682  9.28%     -    3s
     0     0 8609.55170    0  172 7878.37407 8609.55170  9.28%     -    3s
     0     0 8607.25390    0  176 7878.37407 8607.25390  9.25%     -    3s
     0     0 8607.25390    0  170 7878.37407 8607.25390  9.25%     -    3s
     0     0 8606.97830    0  180 7878.37407 8606.97830  9.25%     -    3s
     0     0 8606.89593    0  183 7878.37407 8606.89593  9.25%     -    3s
     0     0 8606.89593    0  183 7878.37407 8606.89593  9.25%     -    3s
     0     0 8606.42674    0  179 7878.37407 8606.42674  9.24%     -    3s
     0     0 8606.42674    0  148 7878.37407 8606.42674  9.24%     -    3s
     0     2 8606.42674    0  140 7878.37407 8606.42674  9.24%     -    4s
   112   127 8431.46453   15  141 7878.37407 8602.08220  9.19%   350    5s
H  404   406                    7882.6074074 8602.08220  9.13%   255    6s
H  408   406                    7900.8740741 8602.08220  8.88%   253    6s
H  410   406                    7928.3740741 8602.08220  8.50%   252    6s
* 1437  1242              65    7934.7227951 8589.67980  8.25%   218    8s
  1507  1290 8295.79974   40  148 7934.72280 8585.47591  8.20%   220   10s
  1526  1303 8221.50144   52  171 7934.72280 8558.85379  7.87%   218   15s
  1538  1314 8518.22111   11  158 7934.72280 8558.57090  7.86%   246   20s
H 1887  1477                    8032.3743744 8556.36213  6.52%   259   24s
  1933  1498 8484.13612   36  105 8032.37437 8556.36213  6.52%   259   25s
H 2059  1511                    8041.7141342 8556.36213  6.40%   265   26s
H 2060  1438                    8067.9527680 8556.36213  6.05%   265   26s
H 2064  1371                    8106.6997707 8556.36213  5.55%   265   26s
H 2146  1353                    8109.5849822 8556.36213  5.51%   264   34s
H 2147  1298                    8116.4633739 8556.36213  5.42%   264   34s
H 2149  1164                    8211.8986113 8556.36213  4.19%   264   34s

Cutting planes:
  Gomory: 11
  Projected implied bound: 10
  MIR: 408
  Flow cover: 668
  Relax-and-lift: 20

Explored 2154 nodes (596853 simplex iterations) in 34.03 seconds (50.98 work units)
Thread count was 8 (of 8 available processors)

Solution count 10: 8211.9 8116.46 8109.58 ... 7900.87

Optimal solution found (tolerance 5.00e-02)
Best objective 8.211898611316e+03, best bound 8.556362133127e+03, gap 4.1947%

User-callback calls 13175, time in user-callback 0.01 sec
